20
0 1 0.36 0.36
0 2 0.35 0.35
0 3 0.54 0.28
0 4 0.54 0.24
0 5 0.25 0.25
0 6 0.25 0.25
0 7 0.11 0.1
0 8 0.26 0.25
0 9 0.64 0.32
0 10 0.26 0.26
0 11 0.2 0.2
0 12 0.7 0.28
0 13 0.69 0.21
0 14 0.64 0.32
0 15 0.2 0.2
0 16 0.28 0.28
0 17 0.3 0.3
0 18 0.32 0.22
0 19 0.13 0.13
1 2 0.26 0.26
1 3 0.26 0.26
1 4 0.18 0.18
1 5 0.18 0.18
1 6 0.33 0.24
1 7 0.62 0.26
1 8 0.29 0.29
1 9 0.06 0.06
1 10 0.16 0.16
1 11 0.48 0.23
1 12 0.64 0.1
1 13 0.28 0.28
1 14 0.44 0.04
1 15 0.5 0.18
1 16 0.85 0.34
1 17 0.18 0.18
1 18 0.76 0.26
1 19 0.36 0.36
2 3 0.32 0.32
2 4 0.46 0.28
2 5 0.1 0.1
2 6 0.45 0.28
2 7 0.53 0.25
2 8 0.24 0.24
2 9 0.46 0.2
2 10 0.34 0.34
2 11 0.5 0.2
2 12 0.18 0.18
2 13 0.47 0.31
2 14 0.74 0.22
2 15 0.75 0.26
2 16 0.36 0.36
2 17 0.68 0.32
2 18 0.21 0.21
2 19 0.5 0.34
3 4 0.24 0.24
3 5 0.26 0.26
3 6 0.6 0.37
3 7 0.18 0.18
3 8 0.8 0.3
3 9 0.54 0.2
3 10 0.76 0.34
3 11 0.12 0.12
3 12 0.16 0.16
3 13 0.22 0.22
3 14 0.22 0.22
3 15 0.67 0.08
3 16 0.35 0.35
3 17 0.76 0.26
3 18 0.32 0.32
3 19 0.26 0.26
4 5 0.46 0.34
4 6 0.72 0.36
4 7 0.64 0.26
4 8 0.36 0.36
4 9 0.44 0.16
4 10 0.5 0.26
4 11 0.6 0.34
4 12 0.2 0.2
4 13 0.29 0.29
4 14 0.43 0.14
4 15 0.82 0.16
4 16 0.28 0.28
4 17 0.66 0.2
4 18 0.67 0.36
4 19 0.58 0.24
5 6 0.72 0.24
5 7 0.15 0.15
5 8 0.64 0.34
5 9 0.7 0.22
5 10 0.24 0.24
5 11 0.46 0.25
5 12 0.65 0.26
5 13 0.44 0.26
5 14 0.64 0.2
5 15 0.18 0.18
5 16 0.46 0.46
5 17 0.34 0.34
5 18 0.9 0.31
5 19 0.56 0.26
6 7 0.59 0.35
6 8 0.74 0.21
6 9 0.3 0.3
6 10 0.32 0.32
6 11 0.25 0.25
6 12 0.73 0.34
6 13 0.91 0.2
6 14 0.28 0.28
6 15 0.42 0.42
6 16 0.24 0.24
6 17 0.35 0.35
6 18 0.47 0.18
6 19 0.12 0.12
7 8 0.37 0.21
7 9 0.22 0.22
7 10 0.52 0.16
7 11 0.46 0.1
7 12 0.18 0.18
7 13 0.28 0.28
7 14 0.22 0.22
7 15 0.1 0.1
7 16 0.46 0.38
7 17 0.53 0.24
7 18 0.43 0.2
7 19 0.23 0.23
8 9 0.39 0.23
8 10 0.27 0.27
8 11 0.56 0.23
8 12 0.7 0.19
8 13 0.67 0.24
8 14 0.81 0.25
8 15 0.23 0.23
8 16 0.51 0.37
8 17 0.35 0.35
8 18 0.03 0.03
8 19 0.34 0.16
9 10 0.14 0.14
9 11 0.26 0.26
9 12 0.04 0.04
9 13 0.26 0.26
9 14 0.02 0.02
9 15 0.52 0.12
9 16 0.28 0.28
9 17 0.12 0.12
9 18 0.2 0.2
9 19 0.33 0.33
10 11 0.78 0.26
10 12 0.18 0.18
10 13 0.43 0.12
10 14 0.12 0.12
10 15 0.74 0.26
10 16 0.33 0.33
10 17 0.48 0.17
10 18 0.57 0.24
10 19 0.2 0.2
11 12 0.23 0.23
11 13 0.29 0.29
11 14 0.8 0.27
11 15 0.68 0.2
11 16 0.3 0.3
11 17 0.14 0.14
11 18 0.72 0.2
11 19 0.76 0.21
12 13 0.79 0.3
12 14 0.65 0.06
12 15 0.81 0.08
12 16 0.72 0.28
12 17 0.16 0.16
12 18 0.44 0.16
12 19 0.52 0.29
13 14 0.72 0.24
13 15 0.3 0.3
13 16 0.36 0.36
13 17 0.22 0.22
13 18 0.21 0.21
13 19 0.08 0.08
14 15 0.14 0.14
14 16 0.3 0.3
14 17 0.14 0.14
14 18 0.32 0.22
14 19 0.86 0.32
15 16 0.58 0.36
15 17 0.24 0.24
15 18 0.24 0.24
15 19 0.62 0.33
16 17 0.63 0.16
16 18 0.74 0.34
16 19 0.28 0.28
17 18 0.32 0.32
17 19 0.24 0.24
18 19 0.66 0.13
